\ This file has been generated by DOcplex
\ ENCODING=ISO-8859-1
\Problem name: dectiger problem

Maximize
 obj: [ 25.075000000000 a0_u0*a1_u0_x0 - 10 a0_u0*a1_u1_x0 + 26 a0_u0*a1_u2_x0
      + 56.900000000000 a0_u0*a1_u0_x1 + 80 a0_u0*a1_u1_x1 + 26 a0_u0*a1_u2_x1
      - 70 a0_u1*a1_u0_x0 - 20 a0_u1*a1_u1_x0 - 70 a0_u1*a1_u2_x0
      + 90 a0_u1*a1_u0_x1 + 100 a0_u1*a1_u1_x1 + 90 a0_u1*a1_u2_x1
      + 55 a0_u2*a1_u0_x0 + 15 a0_u2*a1_u1_x0 + 60 a0_u2*a1_u2_x0
      + 10 a0_u2*a1_u0_x1 + 60 a0_u2*a1_u1_x1 + 10 a0_u2*a1_u2_x1 ]/2
Subject To
 c1: 67.775000000000 aj_u0_x0 + 50 aj_u1_x0 + 130 aj_u2_x0 + 66 aj_u3_x0
     + 50 aj_u4_x0 + 130 aj_u5_x0 + 120 aj_u6_x0 + 100 aj_u7_x0 + 140 aj_u8_x0
     - 67.775000000000 a0_u0 - 66 a0_u1 - 120 a0_u2 >= 0
 c2: 67.775000000000 aj_u0_x0 + 50 aj_u1_x0 + 130 aj_u2_x0 + 66 aj_u3_x0
     + 50 aj_u4_x0 + 130 aj_u5_x0 + 120 aj_u6_x0 + 100 aj_u7_x0 + 140 aj_u8_x0
     - 50 a0_u0 - 50 a0_u1 - 100 a0_u2 >= 0
 c3: 67.775000000000 aj_u0_x0 + 50 aj_u1_x0 + 130 aj_u2_x0 + 66 aj_u3_x0
     + 50 aj_u4_x0 + 130 aj_u5_x0 + 120 aj_u6_x0 + 100 aj_u7_x0 + 140 aj_u8_x0
     - 130 a0_u0 - 130 a0_u1 - 140 a0_u2 >= 0
 c4: 15.512500000000 aj_u0_x1 + 10 aj_u1_x1 - 115 aj_u2_x1 - 19 aj_u3_x1
     + 15 aj_u4_x1 - 115 aj_u5_x1 - 55 aj_u6_x1 - 30 aj_u7_x1 - 65 aj_u8_x1
     - 15.512500000000 a0_u0 + 19 a0_u1 + 55 a0_u2 >= 0
 c5: 15.512500000000 aj_u0_x1 + 10 aj_u1_x1 - 115 aj_u2_x1 - 19 aj_u3_x1
     + 15 aj_u4_x1 - 115 aj_u5_x1 - 55 aj_u6_x1 - 30 aj_u7_x1 - 65 aj_u8_x1
     - 10 a0_u0 - 15 a0_u1 + 30 a0_u2 >= 0
 c6: 15.512500000000 aj_u0_x1 + 10 aj_u1_x1 - 115 aj_u2_x1 - 19 aj_u3_x1
     + 15 aj_u4_x1 - 115 aj_u5_x1 - 55 aj_u6_x1 - 30 aj_u7_x1 - 65 aj_u8_x1
     + 115 a0_u0 + 115 a0_u1 + 65 a0_u2 >= 0
 c7: a0_u0 + a0_u1 + a0_u2 = 1
 c8: a1_u0_x0 + a1_u1_x0 + a1_u2_x0 = 1
 c9: aj_u0_x0 + aj_u1_x0 + aj_u2_x0 + aj_u3_x0 + aj_u4_x0 + aj_u5_x0 + aj_u6_x0
     + aj_u7_x0 + aj_u8_x0 = 1
 c10: a1_u0_x1 + a1_u1_x1 + a1_u2_x1 = 1
 c11: aj_u0_x1 + aj_u1_x1 + aj_u2_x1 + aj_u3_x1 + aj_u4_x1 + aj_u5_x1 + aj_u6_x1
      + aj_u7_x1 + aj_u8_x1 = 1
 c12: aj_u0_x0 + aj_u1_x0 + aj_u2_x0 - a0_u0 = 0
 c13: aj_u3_x0 + aj_u4_x0 + aj_u5_x0 - a0_u1 = 0
 c14: aj_u6_x0 + aj_u7_x0 + aj_u8_x0 - a0_u2 = 0
 c15: aj_u0_x1 + aj_u1_x1 + aj_u2_x1 - a0_u0 = 0
 c16: aj_u3_x1 + aj_u4_x1 + aj_u5_x1 - a0_u1 = 0
 c17: aj_u6_x1 + aj_u7_x1 + aj_u8_x1 - a0_u2 = 0
 c18: aj_u0_x0 + aj_u3_x0 + aj_u6_x0 - a1_u0_x0 = 0
 c19: aj_u1_x0 + aj_u4_x0 + aj_u7_x0 - a1_u1_x0 = 0
 c20: aj_u2_x0 + aj_u5_x0 + aj_u8_x0 - a1_u2_x0 = 0
 c21: aj_u0_x1 + aj_u3_x1 + aj_u6_x1 - a1_u0_x1 = 0
 c22: aj_u1_x1 + aj_u4_x1 + aj_u7_x1 - a1_u1_x1 = 0
 c23: aj_u2_x1 + aj_u5_x1 + aj_u8_x1 - a1_u2_x1 = 0

Bounds
       a0_u0 <= 1
       a0_u1 <= 1
       a0_u2 <= 1
 0 <= a1_u0_x0 <= 1
 0 <= a1_u1_x0 <= 1
 0 <= a1_u2_x0 <= 1
       aj_u0_x0 <= 1
       aj_u1_x0 <= 1
       aj_u2_x0 <= 1
       aj_u3_x0 <= 1
       aj_u4_x0 <= 1
       aj_u5_x0 <= 1
       aj_u6_x0 <= 1
       aj_u7_x0 <= 1
       aj_u8_x0 <= 1
 0 <= a1_u0_x1 <= 1
 0 <= a1_u1_x1 <= 1
 0 <= a1_u2_x1 <= 1
       aj_u0_x1 <= 1
       aj_u1_x1 <= 1
       aj_u2_x1 <= 1
       aj_u3_x1 <= 1
       aj_u4_x1 <= 1
       aj_u5_x1 <= 1
       aj_u6_x1 <= 1
       aj_u7_x1 <= 1
       aj_u8_x1 <= 1

Binaries
 a1_u0_x0 a1_u1_x0 a1_u2_x0 a1_u0_x1 a1_u1_x1 a1_u2_x1
End
